qbf_easy_train/easy_5209_UNSAT.qdimacs
p cnf 41 123
a 10 15 23 0
e 1 2 3 4 5 6 7 8 9 11 12 13 14 16 17 18 19 20 21 22 24 25 26 27 28 29 30 31 32 33 34 35 36 37 38 39 40 41 0
-3 1 0
-3 2 0
-1 -2 3 0
3 -4 -5 0
-3 4 -5 0
3 4 5 0
-3 -4 5 0
-9 -2 0
-9 -8 0
2 8 9 0
-7 9 -10 0
7 -9 -10 0
-7 -9 10 0
7 9 10 0
-10 -7 -11 0
10 7 -11 0
-10 7 11 0
10 -7 11 0
-12 6 0
-12 11 0
-6 -11 12 0
13 2 0
13 10 0
-2 -10 -13 0
15 -7 0
15 -14 0
7 14 -15 0
-16 -13 0
-16 15 0
13 -15 16 0
-17 -1 0
-17 -15 0
1 15 17 0
-18 -16 0
-18 -17 0
16 17 18 0
19 -12 0
19 18 0
12 -18 -19 0
20 5 0
20 19 0
-5 -19 -20 0
-7 9 -21 0
7 -9 -21 0
-7 -9 21 0
7 9 21 0
-22 -21 0
-22 -7 0
21 7 22 0
23 22 0
23 22 0
-22 -23 0
-2 7 -24 0
2 -7 -24 0
-2 -7 24 0
2 7 24 0
-23 24 -25 0
23 -24 -25 0
-23 -24 25 0
23 24 25 0
26 -8 0
26 3 0
8 -3 -26 0
-27 26 0
-27 26 0
-26 27 0
-25 -27 -28 0
25 27 -28 0
-25 27 28 0
25 -27 28 0
29 -20 0
29 28 0
20 -28 -29 0
30 2 0
30 1 0
-2 -1 -30 0
-22 -30 -31 0
22 30 -31 0
-22 30 31 0
22 -30 31 0
22 30 -32 0
-22 -30 -32 0
22 -30 32 0
-22 30 32 0
33 -15 0
33 32 0
15 -32 -33 0
-34 31 0
-34 33 0
-31 -33 34 0
-35 3 -36 0
35 -3 -36 0
-35 -3 36 0
35 3 36 0
-37 34 0
-37 -36 0
-34 36 37 0
30 3 -38 0
-30 -3 -38 0
30 -3 38 0
-30 3 38 0
-7 38 -39 0
7 -38 -39 0
-7 -38 39 0
7 38 39 0
40 -37 0
40 -39 0
37 39 -40 0
41 29 0
41 -40 0
-29 40 -41 0
-12 27 -28 -14 0
-30 -6 -33 0
-9 11 24 0
13 16 -23 10 0
-18 -30 16 0
38 3 30 31 0
-36 14 -22 -26 0
4 1 -38 -16 -17 -14 -32 0
23 -14 31 -41 -21 4 18 40 0
-8 23 13 9 -40 -21 -12 0
-40 -38 34 -9 0
41 0
