sat_easy_train/easy_5209_UNSAT.dimacs
p cnf 148 512
-3 4 -5 0
3 -4 -5 0
-3 -4 5 0
3 4 5 0
-6 -2 0
-6 -5 0
2 5 6 0
-1 6 -7 0
1 -6 -7 0
-1 -6 7 0
1 6 7 0
8 9 -10 0
-8 -9 -10 0
8 -9 10 0
-8 9 10 0
11 3 0
11 10 0
-3 -10 -11 0
12 -7 0
12 11 0
7 -11 -12 0
14 13 0
14 -8 0
-13 8 -14 0
12 -14 -15 0
-12 14 -15 0
12 14 15 0
-12 -14 15 0
16 -17 0
-16 -17 0
18 15 0
18 17 0
-15 -17 -18 0
-17 19 -20 0
17 -19 -20 0
-17 -19 20 0
17 19 20 0
-3 20 -21 0
3 -20 -21 0
-3 -20 21 0
3 20 21 0
23 22 0
23 9 0
-22 -9 -23 0
24 -21 0
24 23 0
21 -23 -24 0
4 -2 -25 0
-4 2 -25 0
4 2 25 0
-4 -2 25 0
26 1 0
26 25 0
-1 -25 -26 0
-25 -27 -28 0
25 27 -28 0
-25 27 28 0
25 -27 28 0
29 19 0
29 -28 0
-19 28 -29 0
-30 17 0
-30 -29 0
-17 29 30 0
26 -30 -31 0
-26 30 -31 0
26 30 31 0
-26 -30 31 0
-32 -5 0
-32 -31 0
5 31 32 0
33 24 0
33 32 0
-24 -32 -33 0
34 27 0
34 8 0
-27 -8 -34 0
35 8 0
35 -23 0
-8 23 -35 0
37 35 0
37 36 0
-35 -36 -37 0
-34 37 -38 0
34 -37 -38 0
-34 -37 38 0
34 37 38 0
33 38 -39 0
-33 -38 -39 0
33 -38 39 0
-33 38 39 0
-40 18 0
-40 -39 0
-18 39 40 0
-41 16 0
-41 -17 0
-16 17 41 0
-42 27 0
-42 -17 0
-27 17 42 0
-43 1 0
-43 42 0
-1 -42 43 0
-43 20 -44 0
43 -20 -44 0
-43 -20 44 0
43 20 44 0
45 -36 0
45 -44 0
36 44 -45 0
-22 24 -46 0
22 -24 -46 0
-22 -24 46 0
22 24 46 0
-47 -45 0
-47 -46 0
45 46 47 0
41 -47 -48 0
-41 47 -48 0
41 47 48 0
-41 -47 48 0
49 -40 0
49 48 0
40 -48 -49 0
-29 50 -51 0
29 -50 -51 0
-29 -50 51 0
29 50 51 0
51 11 -52 0
-51 -11 -52 0
51 -11 52 0
-51 11 52 0
-54 8 0
-54 53 0
-8 -53 54 0
-55 -22 0
-55 -54 0
22 54 55 0
56 -55 0
56 -1 0
55 1 -56 0
57 -52 0
57 -56 0
52 56 -57 0
-58 54 0
-58 -50 0
-54 50 58 0
-59 -58 0
-59 -30 0
58 30 59 0
60 57 0
60 59 0
-57 -59 -60 0
61 -13 0
61 36 0
13 -36 -61 0
-62 8 0
-62 20 0
-8 -20 62 0
-63 21 -64 0
63 -21 -64 0
-63 -21 64 0
63 21 64 0
65 62 0
65 -64 0
-62 64 -65 0
66 65 0
66 -8 0
-65 8 -66 0
-67 -61 0
-67 66 0
61 -66 67 0
-68 20 0
-68 67 0
-20 -67 68 0
36 -63 -69 0
-36 63 -69 0
36 63 69 0
-36 -63 69 0
-22 -36 -70 0
22 36 -70 0
-22 36 70 0
22 -36 70 0
-3 22 -71 0
3 -22 -71 0
-3 -22 71 0
3 22 71 0
-71 -29 -72 0
71 29 -72 0
-71 29 72 0
71 -29 72 0
73 -4 0
73 72 0
4 -72 -73 0
70 73 -74 0
-70 -73 -74 0
70 -73 74 0
-70 73 74 0
75 -69 0
75 -74 0
69 74 -75 0
-76 -68 0
-76 -75 0
68 75 76 0
-35 62 -77 0
35 -62 -77 0
-35 -62 77 0
35 62 77 0
15 -77 -78 0
-15 77 -78 0
15 77 78 0
-15 -77 78 0
-76 -78 -79 0
76 78 -79 0
-76 78 79 0
76 -78 79 0
60 79 -80 0
-60 -79 -80 0
60 -79 80 0
-60 79 80 0
54 21 -81 0
-54 -21 -81 0
54 -21 81 0
-54 21 81 0
-82 -80 0
-82 81 0
80 -81 82 0
83 -2 0
83 27 0
2 -27 -83 0
-84 -83 0
-84 21 0
83 -21 84 0
-28 -20 -85 0
28 20 -85 0
-28 20 85 0
28 -20 85 0
-86 85 0
-86 -1 0
-85 1 86 0
14 86 -87 0
-14 -86 -87 0
14 -86 87 0
-14 86 87 0
-87 88 0
87 88 0
89 -28 0
89 14 0
28 -14 -89 0
88 89 -90 0
-88 -89 -90 0
88 -89 90 0
-88 89 90 0
-91 -84 0
-91 90 0
84 -90 91 0
-92 8 0
-92 -6 0
-8 6 92 0
-92 -43 -93 0
92 43 -93 0
-92 43 93 0
92 -43 93 0
91 -93 -94 0
-91 93 -94 0
91 93 94 0
-91 -93 94 0
-95 -71 0
-95 -9 0
71 9 95 0
96 -23 0
96 -43 0
23 43 -96 0
-97 -96 0
-97 -19 0
96 19 97 0
98 -95 0
98 -97 0
95 97 -98 0
-99 25 0
-99 -23 0
-25 23 99 0
100 -98 0
100 -99 0
98 99 -100 0
-101 -62 0
-101 63 0
62 -63 101 0
-102 -50 0
-102 -10 0
50 10 102 0
-103 -101 0
-103 102 0
101 -102 103 0
-100 -103 -104 0
100 103 -104 0
-100 103 104 0
100 -103 104 0
105 55 0
105 26 0
-55 -26 -105 0
106 -54 0
106 19 0
54 -19 -106 0
107 106 0
107 9 0
-106 -9 -107 0
-50 9 -108 0
50 -9 -108 0
-50 -9 108 0
50 9 108 0
109 107 0
109 108 0
-107 -108 -109 0
109 53 -110 0
-109 -53 -110 0
109 -53 110 0
-109 53 110 0
23 -111 -112 0
-23 111 -112 0
23 111 112 0
-23 -111 112 0
113 101 0
113 -15 0
-101 15 -113 0
-114 112 0
-114 113 0
-112 -113 114 0
-110 114 -115 0
110 -114 -115 0
-110 -114 115 0
110 114 115 0
105 115 -116 0
-105 -115 -116 0
105 -115 116 0
-105 115 116 0
-117 104 0
-117 116 0
-104 -116 117 0
118 94 0
118 -117 0
-94 117 -118 0
119 -34 0
119 83 0
34 -83 -119 0
-23 -53 -120 0
23 53 -120 0
-23 53 120 0
23 -53 120 0
120 50 -121 0
-120 -50 -121 0
120 -50 121 0
-120 50 121 0
122 96 0
122 29 0
-96 -29 -122 0
-7 54 -123 0
7 -54 -123 0
-7 -54 123 0
7 54 123 0
-13 62 -124 0
13 -62 -124 0
-13 -62 124 0
13 62 124 0
123 -124 -125 0
-123 124 -125 0
123 124 125 0
-123 -124 125 0
126 -122 0
126 -125 0
122 125 -126 0
127 -34 0
127 -29 0
34 29 -127 0
126 127 -128 0
-126 -127 -128 0
126 -127 128 0
-126 127 128 0
-129 121 0
-129 -128 0
-121 128 129 0
130 -27 0
130 -53 0
27 53 -130 0
-10 -130 -131 0
10 130 -131 0
-10 130 131 0
10 -130 131 0
132 106 0
132 26 0
-106 -26 -132 0
133 31 0
133 87 0
-31 -87 -133 0
-132 -133 -134 0
132 133 -134 0
-132 133 134 0
132 -133 134 0
135 -131 0
135 -134 0
131 134 -135 0
136 -129 0
136 135 0
129 -135 -136 0
-137 86 0
-137 -14 0
-86 14 137 0
-138 137 0
-138 -19 0
-137 19 138 0
139 136 0
139 -138 0
-136 138 -139 0
140 -119 0
140 -139 0
119 139 -140 0
-54 44 -141 0
54 -44 -141 0
-54 -44 141 0
54 44 141 0
141 -44 -142 0
-141 44 -142 0
141 44 142 0
-141 -44 142 0
143 -16 0
143 -142 0
16 142 -143 0
-28 -143 -144 0
28 143 -144 0
-28 143 144 0
28 -143 144 0
-145 140 0
-145 144 0
-140 -144 145 0
-118 145 -146 0
118 -145 -146 0
-118 -145 146 0
118 145 146 0
147 82 0
147 -146 0
-82 146 -147 0
-148 -49 0
-148 -147 0
49 147 148 0
-38 105 -54 140 2 0
146 -64 -78 -32 0
123 85 -122 26 0
137 -42 0
-56 -18 -69 36 45 0
-135 33 61 -94 1 0
-16 -87 -146 116 0
102 -83 60 107 0
41 89 -96 0
-101 42 15 -19 0
78 82 125 83 0
-141 -4 0
-140 -137 -50 -131 0
143 -91 86 -46 44 -84 0
-11 -47 -81 127 -42 0
52 -111 -140 0
71 118 40 -83 0
147 -93 -115 46 5 59 0
6 32 -42 94 43 0
-115 -136 0
-44 136 -58 85 55 -52 0
82 95 55 -33 0
-46 94 -59 0
-89 98 -21 -88 -62 0
48 -97 81 0
35 57 0
-96 -58 49 4 -11 -138 0
127 130 43 50 133 91 0
80 115 -60 -88 0
-137 112 18 0
-139 48 0
-75 145 0
-65 80 -6 142 -60 97 0
-112 -63 98 -47 46 113 0
-58 -57 0
-43 -27 0
54 -22 0
63 96 -68 2 0
148 138 -127 -1 0
-43 -45 0
-86 106 -25 8 -58 0
72 87 0
-7 84 33 0
87 -132 136 129 0
-86 50 0
-31 116 0
3 -71 132 0
-79 130 66 0
40 -45 -30 -129 0
145 -140 43 -107 0
61 -102 -37 -76 0
-128 33 66 -78 97 98 0
-37 -140 -103 0
-61 -47 107 0
58 -33 0
-53 83 -6 -138 -36 -49 0
60 122 5 135 0
39 -98 0
16 -9 -25 119 115 98 0
-20 -80 -96 -95 0
-64 -116 -74 -79 0
-85 127 -22 143 0
144 -96 0
-143 101 0
-1 44 -23 -125 0
129 88 27 0
88 -45 -139 142 62 57 0
148 0
